164410.94,53.05,65.79
150458.36,57.97,71.89
154037.82,56.63,70.22
164173.03,53.13,65.89
149821.36,58.22,72.2
170516.25,51.15,63.44
159524.14,54.68,67.81
160742.11,54.26,67.29
172915.82,50.44,62.56
150424.0,57.99,71.91
180634.71,48.29,59.88
148503.07,58.74,72.84
157632.12,55.33,68.62
170541.73,51.15,63.43
170972.98,51.02,63.27
163143.39,53.47,66.3
169391.51,51.49,63.86
173856.85,50.17,62.22
172238.93,50.64,62.8
157951.35,55.22,68.48
